5 5
1 84 0 31 3 30 4 80 2 66
0 81 1 10 3 71 2 59 4 51
4 9 1 54 2 62 3 81 0 9
3 9 1 24 2 39 4 75 0 8
0 25 2 66 1 10 4 24 3 80
-1
0 1 2 3 5
0 4 5
0 4 5
0 2 5
0 3 5
-2
111 115 188 412
281 425
219 274
33 228
111 319

398 7
5 20 19 1 14
16 0 6 11 22
17 21 12 8 4
15 7 2 24 13
10 18 23 3 9
